24543,
24543,
23309,
22264,
20422,
20422,
20379,
19840,
19410,
19390,
18986,
18630,
18483,
18352,
18068,
17422,
17173,
17114,
16662,
16662,
16497,
16459,
16453,
16105,
15919,
15855,
15855,
15855,
15796,
15796,
15782,
15782,
15782,
15782,
15758,
15758,
15758,
15633,
15545,
15515,
15426,
15288,
15226,
15125,
15125,
15048,
14690,
14690,
14556,
14549,
14481,
14474,
14333,
14333,
14318,
14196,
14196,
14196,
14196,
14196,
14196,
14196,
14186,
14186,
14186,
14005,
14005,
14005,
14005,
13869,
13869,
13721,
13721,
13721,
13503,
13503,
13462,
13462,
13430,
13412,
13412,
13412,
13412,
13412,
13412,
13412,
13412,
13412,
13260,
13260,
13260,
13260,
13260,
13186,
13186,
12969,
12969,
12834,
12834,
12834,
12834,
12834,
12834,
12834,
12834,
12786,
12786,
12786,
12759,
12759,
12759,
12752,
12752,
12752,
12752,
12752,
12752,
12752,
12752,
12752,
12752,
12752,
12752,
12730,
12730,
12730,
12730,
12645,
12645,
12645,
12565,
12565,
12496,
12416,
12416,
12416,
12416,
12416,
12416,
12416,
12416,
12416,
12416,
12416,
12416,
12248,
12248,
12248,
12205,
12205,
12205,
12205,
12205,
12205,
12205,
12205,
12205,
12205,
12205,
12205,
12205,
12205,
12205,
12205,
12194,
12194,
12194,
12182,
12182,
12171,
12171,
12150,
12150,
12150,
12150,
12123,
12123,
12123,
12123,
12123,
12123,
12123,
12123,
12123,
12123,
12123,
12123,
12099,
12099,
12099,
12099,
12099,
12099,
12099,
12099,
12099,
12099,
12099,
12099,
12099,
12099,
12099,
12099,
12099,
12099,
12099,
12099,
12099,
12099,
12099,
12099,
12099,
12099,
12099,
12099,
12099,
12099,
12099,
12099,
12099,
12099,
12099,
12099,
12099,
12099,
12099,
12099,
12099,
12099,
12099,
12099,
12099,
12099,
12099,
12099,
12099,
12099,
12099,
12099,
12099,
12099,
12099,
12099,
12099,
12099,
12099,
12099,
12099,
12099,
12099,
12099,
12099,
12099,
12099,
12099,
12099,
12099,
12099,
12099,
12099,
12099,
12099,
12099,
12099,
12099,
12099,
12099,
12099,
12099,
12099,
12099,
12099,
12033,
12033,
12033,
12033,
12033,
12033,
12033,
12033,
12033,
12033,
12033,
12033,
12033,
12033,
12033,
12033,
12033,
12033,
12033,
12033,
12033,
12033,
12033,
12033,
12033,
12033,
12033,
12033,
12033,
12033,
12033,
12033,
12022,
12022,
12022,
12022,
12022,
12022,
12022,
12022,
12022,
12022,
12022,
12022,
12022,
12022,
12002,
11987,
11966,
11966,
11966,
11966,
11966,
11966,
11960,
11960,
11960,
11960,
11960,
11960,
11960,
11960,
11960,
11960,
11960,
11960,
11960,
11960,
11960,
11960,
11960,
11960,
11960,
11960,
11960,
11960,
11960,
11960,
11960,
11960,
11960,
11960,
11960,
11960,
11960,
11960,
11960,
11960,
11960,
11960,
11960,
11960,
11960,
11960,
11943,
11943,
11943,
11943,
11943,
11943,
11943,
11943,
11943,
11943,
11943,
11943,
11943,
11943,
11943,
11943,
11943,
11943,
11943,
11943,
11943,
11943,
11943,
11943,
11943,
11943,
11943,
11943,
11943,
11943,
11943,
11943,
11943,
11943,
11943,
11943,
11943,
11943,
11943,
11943,
11943,
11943,
11943,
11943,
11943,
11943,
11943,
11943,
11943,
11943,
11943,
11943,
11943,
11919,
11919,
11919,
11919,
11919,
11919,
11919,
11919,
11919,
11919,
11919,
11919,
11919,
11919,
11919,
11919,
11919,
11919,
11919,
11919,
11919,
11919,
11919,
11919,
11919,
11919,
11919,
11919,
11919,
11919,
11919,
11919,
11919,
11919,
11919,
11919,
11919,
11919,
11919,
11919,
11919,
11919,
11919,
11919,
11919,
11919,
11919,
11919,
11919,
11919,
11919,
11919,
11919,
11919,
11919,
11919,
11849,
11849,
11849,
11849,
11849,
11790,
11790,
11790,
11790,
11790,
11790,
11790,
11790,
11790,
11790,
11790,
11790,
11790,
11790,
11790,
11790,
11790,
11790,
11790,
11790,
11790,
11790,
11788,
11788,
11788,
11788,
11788,
11788,
11788,
11788,
11788,
11788,
11788,
11788,
11788,
11788,
11788,
11788,
11788,
11788,
11788,
11788,
11788,
11788,
11788,
11788,
11788,
11788,
11788,
11788,
11788,
11788,
11788,
11788,
11788,
11788,
11788,
11788,
11788,
11788,
11788,
11788,
11788,
11788,
11788,
11788,
11788,
11788,
11788,
11788,
11788,
11788,
11788,
11788,
11788,
11788,
11788,
11788,
11788,
11788,
11788,
11788,
11788,
11788,
11788,
11788,
11788,
11788,
11788,
11788,
11788,
11788,
11788,
11788,
11788,
11788,
11788,
11788,
11788,
11788,
11788,
11788,
11788,
11788,
11788,
11788,
11788,
11788,
11788,
11788,
11788,
11788,
11788,
11788,
11788,
11788,
11788,
11788,
11788,
11788,
11788,
11788,
11788,
11788,
11788,
11788,
11788,
11788,
11788,
11788,
11788,
11788,
11788,
11788,
11788,
11788,
11788,
11788,
11788,
11788,
11788,
11788,
11788,
11788,
11788,
11788,
11788,
11788,
11788,
11788,
11788,
11788,
11788,
11788,
11788,
11788,
11788,
11788,
11788,
11788,
11788,
11788,
11788,
11788,
11788,
11788,
11788,
11788,
11788,
11788,
11788,
11788,
11788,
11788,
11788,
11788,
11788,
11788,
11788,
11788,
11788,
11788,
11788,
11788,
11788,
11788,
11788,
11788,
11788,
11788,
11788,
11788,
11788,
11788,
11788,
11788,
11788,
11788,
11788,
11788,
11788,
11788,
11788,
11788,
11788,
11788,
11788,
11788,
11788,
11788,
11788,
11788,
11788,
11788,
11788,
11788,
11788,
11788,
11788,
11788,
11788,
11788,
11788,
11788,
11788,
11788,
11788,
11788,
11788,
11788,
11788,
11788,
11788,
11788,
11788,
11788,
11788,
11788,
11788,
11788,
11788,
11788,
11788,
11788,
11788,
11788,
11788,
11788,
11788,
11788,
11788,
11788,
11788,
11788,
11788,
11788,
11788,
11788,
11788,
11788,
11788,
11788,
11788,
11788,
11788,
11788,
11788,
11788,
11788,
11788,
11788,
11788,
11788,
11788,
11788,
11788,
11788,
11788,
11788,
11788,
11788,
11788,
11788,
11788,
11788,
11788,
11788,
11788,
11788,
11788,
11788,
11788,
11788,
11788,
11788,
11788,
11788,
11788,
11788,
11788,
11788,
11788,
11788,
11788,
11788,
11788,
11788,
11788,
11788,
11788,
11788,
11788,
11788,
11788,
11788,
11788,
11788,
11788,
11788,
11788,
11788,
11788,
11788,
11788,
11788,
11788,
11788,
11788,
11788,
11788,
11788,
11788,
11788,
11788,
11788,
11788,
11788,
11788,
11788,
11788,
11788,
11788,
11788,
11788,
11788,
11788,
11788,
11788,
11788,
11788,
11788,
11788,
11788,
11788,
11788,
11788,
11788,
11788,
11788,
11788,
11788,
11788,
11788,
11788,
11788,
11788,
11788,
11788,
11788,
11788,
11788,
11788,
11788,
11788,
11788,
11788,
11788,
11788,
11788,
11788,
11788,
11788,
11788,
11788,
11788,
11788,
11788,
11788,
11788,
11788,
11788,
11788,
11788,
11788,
11788,
11788,
11788,
11788,
11788,
11788,
11788,
11788,
11788,
11788,
11788,
11788,
11788,
11788,
11788,
11788,
11788,
11788,
11788,
11788,
11788,
11788,
11788,
11788,
11788,
11788,
11788,
11788,
11788,
11788,
11788,
11788,
11788,
11788,
11788,
11788,
11788,
11788,
11788,
11788,
11788,
11788,
11788,
11788,
11788,
11788,
11788,
11788,
11788,
11788,
11788,
11788,
11788,
11788,
11788,
11788,
11788,
11788,
11788,
11788,
11788,
11788,
11788,
11788,
11788,
11788,
11788,
11788,
11788,
11788,
11788,
11788,
11788,
11788,
11788,
11788,
11788,
11788,
11788,
11788,
11788,
11788,
11788,
11788,
11788,
11788,
11788,
11788,
11788,
11788,
11788,
11788,
11788,
11788,
11788,
11788,
11788,
11788,
11788,
11788,
11788,
11788,
11788,
11788,
11753,
11753,
11753,
11753,
11753,
11753,
11753,
11753,
11753,
11753,
11753,
11753,
11753,
11753,
11753,
11753,
11753,
11753,
11753,
11753,
11753,
11753,
11753,
1,
